
;this file is automatically generated: Tue Mar 02 15:25:53 CST 2021

;declarations generated

(declare-fun oclExcludes ( Int Int) Bool)
(declare-fun Cardinality ( Int) Int)
(declare-fun class49_Class49IntAttr1 ( Int) Int)
(declare-fun obj_076406b7_0aa5_4a46_b599_5343a0b9c8de ( Int) Int)
(declare-fun oclSelect ( Int Bool) Int)
(declare-fun type_e6f93835_c125_4710_9017_4a4090a5b403_Class18 ( Int) Bool)
(declare-fun type_e6f93835_c125_4710_9017_4a4090a5b403_Class17 ( Int) Bool)
(declare-fun type_e6f93835_c125_4710_9017_4a4090a5b403_Class19 ( Int) Bool)
(declare-fun type_e6f93835_c125_4710_9017_4a4090a5b403_Class14 ( Int) Bool)
(declare-fun type_e6f93835_c125_4710_9017_4a4090a5b403_Class13 ( Int) Bool)
(declare-fun type_e6f93835_c125_4710_9017_4a4090a5b403_Class16 ( Int) Bool)
(declare-fun type_e6f93835_c125_4710_9017_4a4090a5b403_Class15 ( Int) Bool)
(declare-fun type_e6f93835_c125_4710_9017_4a4090a5b403_Class10 ( Int) Bool)
(declare-fun type_e6f93835_c125_4710_9017_4a4090a5b403_Class12 ( Int) Bool)
(declare-fun type_e6f93835_c125_4710_9017_4a4090a5b403_Class11 ( Int) Bool)
(declare-fun type_e6f93835_c125_4710_9017_4a4090a5b403_Class29 ( Int) Bool)
(declare-fun type_e6f93835_c125_4710_9017_4a4090a5b403_Class28 ( Int) Bool)
(declare-fun type_e6f93835_c125_4710_9017_4a4090a5b403_Class25 ( Int) Bool)
(declare-fun type_e6f93835_c125_4710_9017_4a4090a5b403_Class24 ( Int) Bool)
(declare-fun type_e6f93835_c125_4710_9017_4a4090a5b403_Class27 ( Int) Bool)
(declare-fun type_e6f93835_c125_4710_9017_4a4090a5b403_Class26 ( Int) Bool)
(declare-fun type_e6f93835_c125_4710_9017_4a4090a5b403_Class21 ( Int) Bool)
(declare-fun type_e6f93835_c125_4710_9017_4a4090a5b403_Class20 ( Int) Bool)
(declare-fun type_e6f93835_c125_4710_9017_4a4090a5b403_Class23 ( Int) Bool)
(declare-fun type_e6f93835_c125_4710_9017_4a4090a5b403_Class22 ( Int) Bool)
(declare-fun type_e6f93835_c125_4710_9017_4a4090a5b403_Class39 ( Int) Bool)
(declare-fun type_e6f93835_c125_4710_9017_4a4090a5b403_Class36 ( Int) Bool)
(declare-fun type_e6f93835_c125_4710_9017_4a4090a5b403_Class35 ( Int) Bool)
(declare-fun type_e6f93835_c125_4710_9017_4a4090a5b403_Class38 ( Int) Bool)
(declare-fun type_e6f93835_c125_4710_9017_4a4090a5b403_Class37 ( Int) Bool)
(declare-fun type_e6f93835_c125_4710_9017_4a4090a5b403_Class32 ( Int) Bool)
(declare-fun type_e6f93835_c125_4710_9017_4a4090a5b403_Class31 ( Int) Bool)
(declare-fun type_e6f93835_c125_4710_9017_4a4090a5b403_Class34 ( Int) Bool)
(declare-fun type_e6f93835_c125_4710_9017_4a4090a5b403_Class33 ( Int) Bool)
(declare-fun type_e6f93835_c125_4710_9017_4a4090a5b403_Class30 ( Int) Bool)
(declare-fun Enum0 ( Int) Int)
(declare-fun Enum1 ( Int) Int)
(declare-fun Enum2 ( Int) Int)
(declare-fun type_e6f93835_c125_4710_9017_4a4090a5b403_Class47 ( Int) Bool)
(declare-fun type_e6f93835_c125_4710_9017_4a4090a5b403_Class46 ( Int) Bool)
(declare-fun type_e6f93835_c125_4710_9017_4a4090a5b403_Class49 ( Int) Bool)
(declare-fun type_e6f93835_c125_4710_9017_4a4090a5b403_Class48 ( Int) Bool)
(declare-fun type_e6f93835_c125_4710_9017_4a4090a5b403_Class43 ( Int) Bool)
(declare-fun type_e6f93835_c125_4710_9017_4a4090a5b403_Class42 ( Int) Bool)
(declare-fun type_e6f93835_c125_4710_9017_4a4090a5b403_Class45 ( Int) Bool)
(declare-fun type_e6f93835_c125_4710_9017_4a4090a5b403_Class44 ( Int) Bool)
(declare-fun type_e6f93835_c125_4710_9017_4a4090a5b403_Class41 ( Int) Bool)
(declare-fun type_e6f93835_c125_4710_9017_4a4090a5b403_Class40 ( Int) Bool)
(declare-fun container_ ( Int) Int)
(declare-fun type_e6f93835_c125_4710_9017_4a4090a5b403_Class54 ( Int) Bool)
(declare-fun type_e6f93835_c125_4710_9017_4a4090a5b403_Class53 ( Int) Bool)
(declare-fun type_e6f93835_c125_4710_9017_4a4090a5b403_Class55 ( Int) Bool)
(declare-fun type_e6f93835_c125_4710_9017_4a4090a5b403_Class50 ( Int) Bool)
(declare-fun type_e6f93835_c125_4710_9017_4a4090a5b403_Class52 ( Int) Bool)
(declare-fun type_e6f93835_c125_4710_9017_4a4090a5b403_Class51 ( Int) Bool)
(declare-fun oclIncludes ( Int Int) Bool)
(declare-fun type_e6f93835_c125_4710_9017_4a4090a5b403_Class0 ( Int) Bool)
(declare-fun type_e6f93835_c125_4710_9017_4a4090a5b403_Class1 ( Int) Bool)
(declare-fun type_e6f93835_c125_4710_9017_4a4090a5b403_Class4 ( Int) Bool)
(declare-fun type_e6f93835_c125_4710_9017_4a4090a5b403_Class5 ( Int) Bool)
(declare-fun type_e6f93835_c125_4710_9017_4a4090a5b403_Class2 ( Int) Bool)
(declare-fun type_e6f93835_c125_4710_9017_4a4090a5b403_Class3 ( Int) Bool)
(declare-fun ObjAt ( Int Int) Int)
(declare-fun type_e6f93835_c125_4710_9017_4a4090a5b403_Class8 ( Int) Bool)
(declare-fun type_e6f93835_c125_4710_9017_4a4090a5b403_Class9 ( Int) Bool)
(declare-fun type_e6f93835_c125_4710_9017_4a4090a5b403_Class6 ( Int) Bool)
(declare-fun type_e6f93835_c125_4710_9017_4a4090a5b403_Class7 ( Int) Bool)

;formula(s) generated
(assert (! (forall ((v Int)) (=> (and (and (and (and (and (and (and (and (and ( type_e6f93835_c125_4710_9017_4a4090a5b403_Class49 v )  ( type_e6f93835_c125_4710_9017_4a4090a5b403_Class45 v ) ) ( type_e6f93835_c125_4710_9017_4a4090a5b403_Class12 v ) ) ( type_e6f93835_c125_4710_9017_4a4090a5b403_Class55 v ) ) ( type_e6f93835_c125_4710_9017_4a4090a5b403_Class33 v ) ) ( type_e6f93835_c125_4710_9017_4a4090a5b403_Class22 v ) ) ( type_e6f93835_c125_4710_9017_4a4090a5b403_Class29 v ) ) ( type_e6f93835_c125_4710_9017_4a4090a5b403_Class39 v ) ) ( type_e6f93835_c125_4710_9017_4a4090a5b403_Class50 v ) ) ( type_e6f93835_c125_4710_9017_4a4090a5b403_Class41 v ) ) (<= ( class49_Class49IntAttr1 ( obj_076406b7_0aa5_4a46_b599_5343a0b9c8de v )  )  18))):named l0))
(assert (! (exists ((o Int)) ( type_e6f93835_c125_4710_9017_4a4090a5b403_Class0 ( obj_076406b7_0aa5_4a46_b599_5343a0b9c8de o )  ) ):named c0))
(assert (! (exists ((o Int)) (and (and (and (and (and ( type_e6f93835_c125_4710_9017_4a4090a5b403_Class1 ( obj_076406b7_0aa5_4a46_b599_5343a0b9c8de o )  )  ( type_e6f93835_c125_4710_9017_4a4090a5b403_Class45 ( obj_076406b7_0aa5_4a46_b599_5343a0b9c8de o )  ) ) ( type_e6f93835_c125_4710_9017_4a4090a5b403_Class12 ( obj_076406b7_0aa5_4a46_b599_5343a0b9c8de o )  ) ) ( type_e6f93835_c125_4710_9017_4a4090a5b403_Class33 ( obj_076406b7_0aa5_4a46_b599_5343a0b9c8de o )  ) ) ( type_e6f93835_c125_4710_9017_4a4090a5b403_Class22 ( obj_076406b7_0aa5_4a46_b599_5343a0b9c8de o )  ) ) ( type_e6f93835_c125_4710_9017_4a4090a5b403_Class39 ( obj_076406b7_0aa5_4a46_b599_5343a0b9c8de o )  ) )):named c1))
(assert (! (exists ((o Int)) (and (and (and (and (and (and (and (and (and ( type_e6f93835_c125_4710_9017_4a4090a5b403_Class10 ( obj_076406b7_0aa5_4a46_b599_5343a0b9c8de o )  )  ( type_e6f93835_c125_4710_9017_4a4090a5b403_Class45 ( obj_076406b7_0aa5_4a46_b599_5343a0b9c8de o )  ) ) ( type_e6f93835_c125_4710_9017_4a4090a5b403_Class12 ( obj_076406b7_0aa5_4a46_b599_5343a0b9c8de o )  ) ) ( type_e6f93835_c125_4710_9017_4a4090a5b403_Class55 ( obj_076406b7_0aa5_4a46_b599_5343a0b9c8de o )  ) ) ( type_e6f93835_c125_4710_9017_4a4090a5b403_Class33 ( obj_076406b7_0aa5_4a46_b599_5343a0b9c8de o )  ) ) ( type_e6f93835_c125_4710_9017_4a4090a5b403_Class22 ( obj_076406b7_0aa5_4a46_b599_5343a0b9c8de o )  ) ) ( type_e6f93835_c125_4710_9017_4a4090a5b403_Class29 ( obj_076406b7_0aa5_4a46_b599_5343a0b9c8de o )  ) ) ( type_e6f93835_c125_4710_9017_4a4090a5b403_Class39 ( obj_076406b7_0aa5_4a46_b599_5343a0b9c8de o )  ) ) ( type_e6f93835_c125_4710_9017_4a4090a5b403_Class50 ( obj_076406b7_0aa5_4a46_b599_5343a0b9c8de o )  ) ) ( type_e6f93835_c125_4710_9017_4a4090a5b403_Class41 ( obj_076406b7_0aa5_4a46_b599_5343a0b9c8de o )  ) )):named c2))
(assert (! (exists ((o Int)) ( type_e6f93835_c125_4710_9017_4a4090a5b403_Class11 ( obj_076406b7_0aa5_4a46_b599_5343a0b9c8de o )  ) ):named c3))
(assert (! (exists ((o Int)) (and (and (and ( type_e6f93835_c125_4710_9017_4a4090a5b403_Class12 ( obj_076406b7_0aa5_4a46_b599_5343a0b9c8de o )  )  ( type_e6f93835_c125_4710_9017_4a4090a5b403_Class33 ( obj_076406b7_0aa5_4a46_b599_5343a0b9c8de o )  ) ) ( type_e6f93835_c125_4710_9017_4a4090a5b403_Class22 ( obj_076406b7_0aa5_4a46_b599_5343a0b9c8de o )  ) ) ( type_e6f93835_c125_4710_9017_4a4090a5b403_Class39 ( obj_076406b7_0aa5_4a46_b599_5343a0b9c8de o )  ) )):named c4))
(assert (! (exists ((o Int)) (and (and (and (and (and (and (and (and (and ( type_e6f93835_c125_4710_9017_4a4090a5b403_Class13 ( obj_076406b7_0aa5_4a46_b599_5343a0b9c8de o )  )  ( type_e6f93835_c125_4710_9017_4a4090a5b403_Class45 ( obj_076406b7_0aa5_4a46_b599_5343a0b9c8de o )  ) ) ( type_e6f93835_c125_4710_9017_4a4090a5b403_Class12 ( obj_076406b7_0aa5_4a46_b599_5343a0b9c8de o )  ) ) ( type_e6f93835_c125_4710_9017_4a4090a5b403_Class55 ( obj_076406b7_0aa5_4a46_b599_5343a0b9c8de o )  ) ) ( type_e6f93835_c125_4710_9017_4a4090a5b403_Class33 ( obj_076406b7_0aa5_4a46_b599_5343a0b9c8de o )  ) ) ( type_e6f93835_c125_4710_9017_4a4090a5b403_Class22 ( obj_076406b7_0aa5_4a46_b599_5343a0b9c8de o )  ) ) ( type_e6f93835_c125_4710_9017_4a4090a5b403_Class29 ( obj_076406b7_0aa5_4a46_b599_5343a0b9c8de o )  ) ) ( type_e6f93835_c125_4710_9017_4a4090a5b403_Class39 ( obj_076406b7_0aa5_4a46_b599_5343a0b9c8de o )  ) ) ( type_e6f93835_c125_4710_9017_4a4090a5b403_Class50 ( obj_076406b7_0aa5_4a46_b599_5343a0b9c8de o )  ) ) ( type_e6f93835_c125_4710_9017_4a4090a5b403_Class41 ( obj_076406b7_0aa5_4a46_b599_5343a0b9c8de o )  ) )):named c5))
(assert (! (exists ((o Int)) (and (and (and (and (and (and (and (and (and ( type_e6f93835_c125_4710_9017_4a4090a5b403_Class14 ( obj_076406b7_0aa5_4a46_b599_5343a0b9c8de o )  )  ( type_e6f93835_c125_4710_9017_4a4090a5b403_Class45 ( obj_076406b7_0aa5_4a46_b599_5343a0b9c8de o )  ) ) ( type_e6f93835_c125_4710_9017_4a4090a5b403_Class12 ( obj_076406b7_0aa5_4a46_b599_5343a0b9c8de o )  ) ) ( type_e6f93835_c125_4710_9017_4a4090a5b403_Class55 ( obj_076406b7_0aa5_4a46_b599_5343a0b9c8de o )  ) ) ( type_e6f93835_c125_4710_9017_4a4090a5b403_Class33 ( obj_076406b7_0aa5_4a46_b599_5343a0b9c8de o )  ) ) ( type_e6f93835_c125_4710_9017_4a4090a5b403_Class22 ( obj_076406b7_0aa5_4a46_b599_5343a0b9c8de o )  ) ) ( type_e6f93835_c125_4710_9017_4a4090a5b403_Class29 ( obj_076406b7_0aa5_4a46_b599_5343a0b9c8de o )  ) ) ( type_e6f93835_c125_4710_9017_4a4090a5b403_Class39 ( obj_076406b7_0aa5_4a46_b599_5343a0b9c8de o )  ) ) ( type_e6f93835_c125_4710_9017_4a4090a5b403_Class50 ( obj_076406b7_0aa5_4a46_b599_5343a0b9c8de o )  ) ) ( type_e6f93835_c125_4710_9017_4a4090a5b403_Class41 ( obj_076406b7_0aa5_4a46_b599_5343a0b9c8de o )  ) )):named c6))
(assert (! (exists ((o Int)) ( type_e6f93835_c125_4710_9017_4a4090a5b403_Class15 ( obj_076406b7_0aa5_4a46_b599_5343a0b9c8de o )  ) ):named c7))
(assert (! (exists ((o Int)) (and (and (and (and (and ( type_e6f93835_c125_4710_9017_4a4090a5b403_Class16 ( obj_076406b7_0aa5_4a46_b599_5343a0b9c8de o )  )  ( type_e6f93835_c125_4710_9017_4a4090a5b403_Class45 ( obj_076406b7_0aa5_4a46_b599_5343a0b9c8de o )  ) ) ( type_e6f93835_c125_4710_9017_4a4090a5b403_Class12 ( obj_076406b7_0aa5_4a46_b599_5343a0b9c8de o )  ) ) ( type_e6f93835_c125_4710_9017_4a4090a5b403_Class33 ( obj_076406b7_0aa5_4a46_b599_5343a0b9c8de o )  ) ) ( type_e6f93835_c125_4710_9017_4a4090a5b403_Class22 ( obj_076406b7_0aa5_4a46_b599_5343a0b9c8de o )  ) ) ( type_e6f93835_c125_4710_9017_4a4090a5b403_Class39 ( obj_076406b7_0aa5_4a46_b599_5343a0b9c8de o )  ) )):named c8))
(assert (! (exists ((o Int)) ( type_e6f93835_c125_4710_9017_4a4090a5b403_Class17 ( obj_076406b7_0aa5_4a46_b599_5343a0b9c8de o )  ) ):named c9))
(assert (! (exists ((o Int)) (and (and (and ( type_e6f93835_c125_4710_9017_4a4090a5b403_Class18 ( obj_076406b7_0aa5_4a46_b599_5343a0b9c8de o )  )  ( type_e6f93835_c125_4710_9017_4a4090a5b403_Class25 ( obj_076406b7_0aa5_4a46_b599_5343a0b9c8de o )  ) ) ( type_e6f93835_c125_4710_9017_4a4090a5b403_Class24 ( obj_076406b7_0aa5_4a46_b599_5343a0b9c8de o )  ) ) ( type_e6f93835_c125_4710_9017_4a4090a5b403_Class39 ( obj_076406b7_0aa5_4a46_b599_5343a0b9c8de o )  ) )):named c10))
(assert (! (exists ((o Int)) (and (and (and (and (and (and (and (and (and ( type_e6f93835_c125_4710_9017_4a4090a5b403_Class19 ( obj_076406b7_0aa5_4a46_b599_5343a0b9c8de o )  )  ( type_e6f93835_c125_4710_9017_4a4090a5b403_Class45 ( obj_076406b7_0aa5_4a46_b599_5343a0b9c8de o )  ) ) ( type_e6f93835_c125_4710_9017_4a4090a5b403_Class12 ( obj_076406b7_0aa5_4a46_b599_5343a0b9c8de o )  ) ) ( type_e6f93835_c125_4710_9017_4a4090a5b403_Class55 ( obj_076406b7_0aa5_4a46_b599_5343a0b9c8de o )  ) ) ( type_e6f93835_c125_4710_9017_4a4090a5b403_Class33 ( obj_076406b7_0aa5_4a46_b599_5343a0b9c8de o )  ) ) ( type_e6f93835_c125_4710_9017_4a4090a5b403_Class22 ( obj_076406b7_0aa5_4a46_b599_5343a0b9c8de o )  ) ) ( type_e6f93835_c125_4710_9017_4a4090a5b403_Class29 ( obj_076406b7_0aa5_4a46_b599_5343a0b9c8de o )  ) ) ( type_e6f93835_c125_4710_9017_4a4090a5b403_Class39 ( obj_076406b7_0aa5_4a46_b599_5343a0b9c8de o )  ) ) ( type_e6f93835_c125_4710_9017_4a4090a5b403_Class50 ( obj_076406b7_0aa5_4a46_b599_5343a0b9c8de o )  ) ) ( type_e6f93835_c125_4710_9017_4a4090a5b403_Class41 ( obj_076406b7_0aa5_4a46_b599_5343a0b9c8de o )  ) )):named c11))
(assert (! (exists ((o Int)) ( type_e6f93835_c125_4710_9017_4a4090a5b403_Class2 ( obj_076406b7_0aa5_4a46_b599_5343a0b9c8de o )  ) ):named c12))
(assert (! (exists ((o Int)) ( type_e6f93835_c125_4710_9017_4a4090a5b403_Class20 ( obj_076406b7_0aa5_4a46_b599_5343a0b9c8de o )  ) ):named c13))
(assert (! (exists ((o Int)) (and (and (and (and (and (and (and (and (and ( type_e6f93835_c125_4710_9017_4a4090a5b403_Class21 ( obj_076406b7_0aa5_4a46_b599_5343a0b9c8de o )  )  ( type_e6f93835_c125_4710_9017_4a4090a5b403_Class45 ( obj_076406b7_0aa5_4a46_b599_5343a0b9c8de o )  ) ) ( type_e6f93835_c125_4710_9017_4a4090a5b403_Class12 ( obj_076406b7_0aa5_4a46_b599_5343a0b9c8de o )  ) ) ( type_e6f93835_c125_4710_9017_4a4090a5b403_Class33 ( obj_076406b7_0aa5_4a46_b599_5343a0b9c8de o )  ) ) ( type_e6f93835_c125_4710_9017_4a4090a5b403_Class22 ( obj_076406b7_0aa5_4a46_b599_5343a0b9c8de o )  ) ) ( type_e6f93835_c125_4710_9017_4a4090a5b403_Class16 ( obj_076406b7_0aa5_4a46_b599_5343a0b9c8de o )  ) ) ( type_e6f93835_c125_4710_9017_4a4090a5b403_Class29 ( obj_076406b7_0aa5_4a46_b599_5343a0b9c8de o )  ) ) ( type_e6f93835_c125_4710_9017_4a4090a5b403_Class39 ( obj_076406b7_0aa5_4a46_b599_5343a0b9c8de o )  ) ) ( type_e6f93835_c125_4710_9017_4a4090a5b403_Class41 ( obj_076406b7_0aa5_4a46_b599_5343a0b9c8de o )  ) ) ( type_e6f93835_c125_4710_9017_4a4090a5b403_Class51 ( obj_076406b7_0aa5_4a46_b599_5343a0b9c8de o )  ) )):named c14))
(assert (! (exists ((o Int)) (and ( type_e6f93835_c125_4710_9017_4a4090a5b403_Class22 ( obj_076406b7_0aa5_4a46_b599_5343a0b9c8de o )  )  ( type_e6f93835_c125_4710_9017_4a4090a5b403_Class39 ( obj_076406b7_0aa5_4a46_b599_5343a0b9c8de o )  ) )):named c15))
(assert (! (exists ((o Int)) (and (and (and (and ( type_e6f93835_c125_4710_9017_4a4090a5b403_Class23 ( obj_076406b7_0aa5_4a46_b599_5343a0b9c8de o )  )  ( type_e6f93835_c125_4710_9017_4a4090a5b403_Class25 ( obj_076406b7_0aa5_4a46_b599_5343a0b9c8de o )  ) ) ( type_e6f93835_c125_4710_9017_4a4090a5b403_Class24 ( obj_076406b7_0aa5_4a46_b599_5343a0b9c8de o )  ) ) ( type_e6f93835_c125_4710_9017_4a4090a5b403_Class39 ( obj_076406b7_0aa5_4a46_b599_5343a0b9c8de o )  ) ) ( type_e6f93835_c125_4710_9017_4a4090a5b403_Class5 ( obj_076406b7_0aa5_4a46_b599_5343a0b9c8de o )  ) )):named c16))
(assert (! (exists ((o Int)) (and (and ( type_e6f93835_c125_4710_9017_4a4090a5b403_Class24 ( obj_076406b7_0aa5_4a46_b599_5343a0b9c8de o )  )  ( type_e6f93835_c125_4710_9017_4a4090a5b403_Class25 ( obj_076406b7_0aa5_4a46_b599_5343a0b9c8de o )  ) ) ( type_e6f93835_c125_4710_9017_4a4090a5b403_Class39 ( obj_076406b7_0aa5_4a46_b599_5343a0b9c8de o )  ) )):named c17))
(assert (! (exists ((o Int)) (and ( type_e6f93835_c125_4710_9017_4a4090a5b403_Class25 ( obj_076406b7_0aa5_4a46_b599_5343a0b9c8de o )  )  ( type_e6f93835_c125_4710_9017_4a4090a5b403_Class39 ( obj_076406b7_0aa5_4a46_b599_5343a0b9c8de o )  ) )):named c18))
(assert (! (exists ((o Int)) ( type_e6f93835_c125_4710_9017_4a4090a5b403_Class26 ( obj_076406b7_0aa5_4a46_b599_5343a0b9c8de o )  ) ):named c19))
(assert (! (exists ((o Int)) ( type_e6f93835_c125_4710_9017_4a4090a5b403_Class27 ( obj_076406b7_0aa5_4a46_b599_5343a0b9c8de o )  ) ):named c20))
(assert (! (exists ((o Int)) (and (and (and (and (and (and (and ( type_e6f93835_c125_4710_9017_4a4090a5b403_Class28 ( obj_076406b7_0aa5_4a46_b599_5343a0b9c8de o )  )  ( type_e6f93835_c125_4710_9017_4a4090a5b403_Class45 ( obj_076406b7_0aa5_4a46_b599_5343a0b9c8de o )  ) ) ( type_e6f93835_c125_4710_9017_4a4090a5b403_Class12 ( obj_076406b7_0aa5_4a46_b599_5343a0b9c8de o )  ) ) ( type_e6f93835_c125_4710_9017_4a4090a5b403_Class33 ( obj_076406b7_0aa5_4a46_b599_5343a0b9c8de o )  ) ) ( type_e6f93835_c125_4710_9017_4a4090a5b403_Class22 ( obj_076406b7_0aa5_4a46_b599_5343a0b9c8de o )  ) ) ( type_e6f93835_c125_4710_9017_4a4090a5b403_Class29 ( obj_076406b7_0aa5_4a46_b599_5343a0b9c8de o )  ) ) ( type_e6f93835_c125_4710_9017_4a4090a5b403_Class39 ( obj_076406b7_0aa5_4a46_b599_5343a0b9c8de o )  ) ) ( type_e6f93835_c125_4710_9017_4a4090a5b403_Class41 ( obj_076406b7_0aa5_4a46_b599_5343a0b9c8de o )  ) )):named c21))
(assert (! (exists ((o Int)) (and (and (and (and (and (and ( type_e6f93835_c125_4710_9017_4a4090a5b403_Class29 ( obj_076406b7_0aa5_4a46_b599_5343a0b9c8de o )  )  ( type_e6f93835_c125_4710_9017_4a4090a5b403_Class45 ( obj_076406b7_0aa5_4a46_b599_5343a0b9c8de o )  ) ) ( type_e6f93835_c125_4710_9017_4a4090a5b403_Class12 ( obj_076406b7_0aa5_4a46_b599_5343a0b9c8de o )  ) ) ( type_e6f93835_c125_4710_9017_4a4090a5b403_Class33 ( obj_076406b7_0aa5_4a46_b599_5343a0b9c8de o )  ) ) ( type_e6f93835_c125_4710_9017_4a4090a5b403_Class22 ( obj_076406b7_0aa5_4a46_b599_5343a0b9c8de o )  ) ) ( type_e6f93835_c125_4710_9017_4a4090a5b403_Class39 ( obj_076406b7_0aa5_4a46_b599_5343a0b9c8de o )  ) ) ( type_e6f93835_c125_4710_9017_4a4090a5b403_Class41 ( obj_076406b7_0aa5_4a46_b599_5343a0b9c8de o )  ) )):named c22))
(assert (! (exists ((o Int)) (and (and (and ( type_e6f93835_c125_4710_9017_4a4090a5b403_Class3 ( obj_076406b7_0aa5_4a46_b599_5343a0b9c8de o )  )  ( type_e6f93835_c125_4710_9017_4a4090a5b403_Class25 ( obj_076406b7_0aa5_4a46_b599_5343a0b9c8de o )  ) ) ( type_e6f93835_c125_4710_9017_4a4090a5b403_Class24 ( obj_076406b7_0aa5_4a46_b599_5343a0b9c8de o )  ) ) ( type_e6f93835_c125_4710_9017_4a4090a5b403_Class39 ( obj_076406b7_0aa5_4a46_b599_5343a0b9c8de o )  ) )):named c23))
(assert (! (exists ((o Int)) (and ( type_e6f93835_c125_4710_9017_4a4090a5b403_Class30 ( obj_076406b7_0aa5_4a46_b599_5343a0b9c8de o )  )  ( type_e6f93835_c125_4710_9017_4a4090a5b403_Class39 ( obj_076406b7_0aa5_4a46_b599_5343a0b9c8de o )  ) )):named c24))
(assert (! (exists ((o Int)) (and (and (and (and (and ( type_e6f93835_c125_4710_9017_4a4090a5b403_Class31 ( obj_076406b7_0aa5_4a46_b599_5343a0b9c8de o )  )  ( type_e6f93835_c125_4710_9017_4a4090a5b403_Class45 ( obj_076406b7_0aa5_4a46_b599_5343a0b9c8de o )  ) ) ( type_e6f93835_c125_4710_9017_4a4090a5b403_Class12 ( obj_076406b7_0aa5_4a46_b599_5343a0b9c8de o )  ) ) ( type_e6f93835_c125_4710_9017_4a4090a5b403_Class33 ( obj_076406b7_0aa5_4a46_b599_5343a0b9c8de o )  ) ) ( type_e6f93835_c125_4710_9017_4a4090a5b403_Class22 ( obj_076406b7_0aa5_4a46_b599_5343a0b9c8de o )  ) ) ( type_e6f93835_c125_4710_9017_4a4090a5b403_Class39 ( obj_076406b7_0aa5_4a46_b599_5343a0b9c8de o )  ) )):named c25))
(assert (! (exists ((o Int)) ( type_e6f93835_c125_4710_9017_4a4090a5b403_Class32 ( obj_076406b7_0aa5_4a46_b599_5343a0b9c8de o )  ) ):named c26))
(assert (! (exists ((o Int)) (and (and ( type_e6f93835_c125_4710_9017_4a4090a5b403_Class33 ( obj_076406b7_0aa5_4a46_b599_5343a0b9c8de o )  )  ( type_e6f93835_c125_4710_9017_4a4090a5b403_Class22 ( obj_076406b7_0aa5_4a46_b599_5343a0b9c8de o )  ) ) ( type_e6f93835_c125_4710_9017_4a4090a5b403_Class39 ( obj_076406b7_0aa5_4a46_b599_5343a0b9c8de o )  ) )):named c27))
(assert (! (exists ((o Int)) (and (and (and ( type_e6f93835_c125_4710_9017_4a4090a5b403_Class34 ( obj_076406b7_0aa5_4a46_b599_5343a0b9c8de o )  )  ( type_e6f93835_c125_4710_9017_4a4090a5b403_Class25 ( obj_076406b7_0aa5_4a46_b599_5343a0b9c8de o )  ) ) ( type_e6f93835_c125_4710_9017_4a4090a5b403_Class24 ( obj_076406b7_0aa5_4a46_b599_5343a0b9c8de o )  ) ) ( type_e6f93835_c125_4710_9017_4a4090a5b403_Class39 ( obj_076406b7_0aa5_4a46_b599_5343a0b9c8de o )  ) )):named c28))
(assert (! (exists ((o Int)) (and (and ( type_e6f93835_c125_4710_9017_4a4090a5b403_Class35 ( obj_076406b7_0aa5_4a46_b599_5343a0b9c8de o )  )  ( type_e6f93835_c125_4710_9017_4a4090a5b403_Class39 ( obj_076406b7_0aa5_4a46_b599_5343a0b9c8de o )  ) ) ( type_e6f93835_c125_4710_9017_4a4090a5b403_Class30 ( obj_076406b7_0aa5_4a46_b599_5343a0b9c8de o )  ) )):named c29))
(assert (! (exists ((o Int)) ( type_e6f93835_c125_4710_9017_4a4090a5b403_Class36 ( obj_076406b7_0aa5_4a46_b599_5343a0b9c8de o )  ) ):named c30))
(assert (! (exists ((o Int)) ( type_e6f93835_c125_4710_9017_4a4090a5b403_Class37 ( obj_076406b7_0aa5_4a46_b599_5343a0b9c8de o )  ) ):named c31))
(assert (! (exists ((o Int)) ( type_e6f93835_c125_4710_9017_4a4090a5b403_Class38 ( obj_076406b7_0aa5_4a46_b599_5343a0b9c8de o )  ) ):named c32))
(assert (! (exists ((o Int)) ( type_e6f93835_c125_4710_9017_4a4090a5b403_Class39 ( obj_076406b7_0aa5_4a46_b599_5343a0b9c8de o )  ) ):named c33))
(assert (! (exists ((o Int)) ( type_e6f93835_c125_4710_9017_4a4090a5b403_Class4 ( obj_076406b7_0aa5_4a46_b599_5343a0b9c8de o )  ) ):named c34))
(assert (! (exists ((o Int)) (and (and (and (and (and (and (and (and (and ( type_e6f93835_c125_4710_9017_4a4090a5b403_Class40 ( obj_076406b7_0aa5_4a46_b599_5343a0b9c8de o )  )  ( type_e6f93835_c125_4710_9017_4a4090a5b403_Class45 ( obj_076406b7_0aa5_4a46_b599_5343a0b9c8de o )  ) ) ( type_e6f93835_c125_4710_9017_4a4090a5b403_Class12 ( obj_076406b7_0aa5_4a46_b599_5343a0b9c8de o )  ) ) ( type_e6f93835_c125_4710_9017_4a4090a5b403_Class55 ( obj_076406b7_0aa5_4a46_b599_5343a0b9c8de o )  ) ) ( type_e6f93835_c125_4710_9017_4a4090a5b403_Class33 ( obj_076406b7_0aa5_4a46_b599_5343a0b9c8de o )  ) ) ( type_e6f93835_c125_4710_9017_4a4090a5b403_Class22 ( obj_076406b7_0aa5_4a46_b599_5343a0b9c8de o )  ) ) ( type_e6f93835_c125_4710_9017_4a4090a5b403_Class29 ( obj_076406b7_0aa5_4a46_b599_5343a0b9c8de o )  ) ) ( type_e6f93835_c125_4710_9017_4a4090a5b403_Class39 ( obj_076406b7_0aa5_4a46_b599_5343a0b9c8de o )  ) ) ( type_e6f93835_c125_4710_9017_4a4090a5b403_Class50 ( obj_076406b7_0aa5_4a46_b599_5343a0b9c8de o )  ) ) ( type_e6f93835_c125_4710_9017_4a4090a5b403_Class41 ( obj_076406b7_0aa5_4a46_b599_5343a0b9c8de o )  ) )):named c35))
(assert (! (exists ((o Int)) (and (and (and (and (and ( type_e6f93835_c125_4710_9017_4a4090a5b403_Class41 ( obj_076406b7_0aa5_4a46_b599_5343a0b9c8de o )  )  ( type_e6f93835_c125_4710_9017_4a4090a5b403_Class45 ( obj_076406b7_0aa5_4a46_b599_5343a0b9c8de o )  ) ) ( type_e6f93835_c125_4710_9017_4a4090a5b403_Class12 ( obj_076406b7_0aa5_4a46_b599_5343a0b9c8de o )  ) ) ( type_e6f93835_c125_4710_9017_4a4090a5b403_Class33 ( obj_076406b7_0aa5_4a46_b599_5343a0b9c8de o )  ) ) ( type_e6f93835_c125_4710_9017_4a4090a5b403_Class22 ( obj_076406b7_0aa5_4a46_b599_5343a0b9c8de o )  ) ) ( type_e6f93835_c125_4710_9017_4a4090a5b403_Class39 ( obj_076406b7_0aa5_4a46_b599_5343a0b9c8de o )  ) )):named c36))
(assert (! (exists ((o Int)) (and ( type_e6f93835_c125_4710_9017_4a4090a5b403_Class42 ( obj_076406b7_0aa5_4a46_b599_5343a0b9c8de o )  )  ( type_e6f93835_c125_4710_9017_4a4090a5b403_Class39 ( obj_076406b7_0aa5_4a46_b599_5343a0b9c8de o )  ) )):named c37))
(assert (! (exists ((o Int)) ( type_e6f93835_c125_4710_9017_4a4090a5b403_Class43 ( obj_076406b7_0aa5_4a46_b599_5343a0b9c8de o )  ) ):named c38))
(assert (! (exists ((o Int)) (and (and (and (and (and (and (and ( type_e6f93835_c125_4710_9017_4a4090a5b403_Class44 ( obj_076406b7_0aa5_4a46_b599_5343a0b9c8de o )  )  ( type_e6f93835_c125_4710_9017_4a4090a5b403_Class45 ( obj_076406b7_0aa5_4a46_b599_5343a0b9c8de o )  ) ) ( type_e6f93835_c125_4710_9017_4a4090a5b403_Class12 ( obj_076406b7_0aa5_4a46_b599_5343a0b9c8de o )  ) ) ( type_e6f93835_c125_4710_9017_4a4090a5b403_Class33 ( obj_076406b7_0aa5_4a46_b599_5343a0b9c8de o )  ) ) ( type_e6f93835_c125_4710_9017_4a4090a5b403_Class22 ( obj_076406b7_0aa5_4a46_b599_5343a0b9c8de o )  ) ) ( type_e6f93835_c125_4710_9017_4a4090a5b403_Class29 ( obj_076406b7_0aa5_4a46_b599_5343a0b9c8de o )  ) ) ( type_e6f93835_c125_4710_9017_4a4090a5b403_Class39 ( obj_076406b7_0aa5_4a46_b599_5343a0b9c8de o )  ) ) ( type_e6f93835_c125_4710_9017_4a4090a5b403_Class41 ( obj_076406b7_0aa5_4a46_b599_5343a0b9c8de o )  ) )):named c39))
(assert (! (exists ((o Int)) (and (and (and (and ( type_e6f93835_c125_4710_9017_4a4090a5b403_Class45 ( obj_076406b7_0aa5_4a46_b599_5343a0b9c8de o )  )  ( type_e6f93835_c125_4710_9017_4a4090a5b403_Class12 ( obj_076406b7_0aa5_4a46_b599_5343a0b9c8de o )  ) ) ( type_e6f93835_c125_4710_9017_4a4090a5b403_Class33 ( obj_076406b7_0aa5_4a46_b599_5343a0b9c8de o )  ) ) ( type_e6f93835_c125_4710_9017_4a4090a5b403_Class22 ( obj_076406b7_0aa5_4a46_b599_5343a0b9c8de o )  ) ) ( type_e6f93835_c125_4710_9017_4a4090a5b403_Class39 ( obj_076406b7_0aa5_4a46_b599_5343a0b9c8de o )  ) )):named c40))
(assert (! (exists ((o Int)) (and (and ( type_e6f93835_c125_4710_9017_4a4090a5b403_Class46 ( obj_076406b7_0aa5_4a46_b599_5343a0b9c8de o )  )  ( type_e6f93835_c125_4710_9017_4a4090a5b403_Class39 ( obj_076406b7_0aa5_4a46_b599_5343a0b9c8de o )  ) ) ( type_e6f93835_c125_4710_9017_4a4090a5b403_Class5 ( obj_076406b7_0aa5_4a46_b599_5343a0b9c8de o )  ) )):named c41))
(assert (! (exists ((o Int)) ( type_e6f93835_c125_4710_9017_4a4090a5b403_Class47 ( obj_076406b7_0aa5_4a46_b599_5343a0b9c8de o )  ) ):named c42))
(assert (! (exists ((o Int)) (and (and (and (and (and (and (and (and (and ( type_e6f93835_c125_4710_9017_4a4090a5b403_Class48 ( obj_076406b7_0aa5_4a46_b599_5343a0b9c8de o )  )  ( type_e6f93835_c125_4710_9017_4a4090a5b403_Class45 ( obj_076406b7_0aa5_4a46_b599_5343a0b9c8de o )  ) ) ( type_e6f93835_c125_4710_9017_4a4090a5b403_Class12 ( obj_076406b7_0aa5_4a46_b599_5343a0b9c8de o )  ) ) ( type_e6f93835_c125_4710_9017_4a4090a5b403_Class55 ( obj_076406b7_0aa5_4a46_b599_5343a0b9c8de o )  ) ) ( type_e6f93835_c125_4710_9017_4a4090a5b403_Class33 ( obj_076406b7_0aa5_4a46_b599_5343a0b9c8de o )  ) ) ( type_e6f93835_c125_4710_9017_4a4090a5b403_Class22 ( obj_076406b7_0aa5_4a46_b599_5343a0b9c8de o )  ) ) ( type_e6f93835_c125_4710_9017_4a4090a5b403_Class29 ( obj_076406b7_0aa5_4a46_b599_5343a0b9c8de o )  ) ) ( type_e6f93835_c125_4710_9017_4a4090a5b403_Class39 ( obj_076406b7_0aa5_4a46_b599_5343a0b9c8de o )  ) ) ( type_e6f93835_c125_4710_9017_4a4090a5b403_Class50 ( obj_076406b7_0aa5_4a46_b599_5343a0b9c8de o )  ) ) ( type_e6f93835_c125_4710_9017_4a4090a5b403_Class41 ( obj_076406b7_0aa5_4a46_b599_5343a0b9c8de o )  ) )):named c43))
(assert (! (exists ((o Int)) (and (and (and (and (and (and (and (and (and ( type_e6f93835_c125_4710_9017_4a4090a5b403_Class49 ( obj_076406b7_0aa5_4a46_b599_5343a0b9c8de o )  )  ( type_e6f93835_c125_4710_9017_4a4090a5b403_Class45 ( obj_076406b7_0aa5_4a46_b599_5343a0b9c8de o )  ) ) ( type_e6f93835_c125_4710_9017_4a4090a5b403_Class12 ( obj_076406b7_0aa5_4a46_b599_5343a0b9c8de o )  ) ) ( type_e6f93835_c125_4710_9017_4a4090a5b403_Class55 ( obj_076406b7_0aa5_4a46_b599_5343a0b9c8de o )  ) ) ( type_e6f93835_c125_4710_9017_4a4090a5b403_Class33 ( obj_076406b7_0aa5_4a46_b599_5343a0b9c8de o )  ) ) ( type_e6f93835_c125_4710_9017_4a4090a5b403_Class22 ( obj_076406b7_0aa5_4a46_b599_5343a0b9c8de o )  ) ) ( type_e6f93835_c125_4710_9017_4a4090a5b403_Class29 ( obj_076406b7_0aa5_4a46_b599_5343a0b9c8de o )  ) ) ( type_e6f93835_c125_4710_9017_4a4090a5b403_Class39 ( obj_076406b7_0aa5_4a46_b599_5343a0b9c8de o )  ) ) ( type_e6f93835_c125_4710_9017_4a4090a5b403_Class50 ( obj_076406b7_0aa5_4a46_b599_5343a0b9c8de o )  ) ) ( type_e6f93835_c125_4710_9017_4a4090a5b403_Class41 ( obj_076406b7_0aa5_4a46_b599_5343a0b9c8de o )  ) )):named c44))
(assert (! (exists ((o Int)) (and ( type_e6f93835_c125_4710_9017_4a4090a5b403_Class5 ( obj_076406b7_0aa5_4a46_b599_5343a0b9c8de o )  )  ( type_e6f93835_c125_4710_9017_4a4090a5b403_Class39 ( obj_076406b7_0aa5_4a46_b599_5343a0b9c8de o )  ) )):named c45))
(assert (! (exists ((o Int)) (and (and (and (and (and (and (and (and ( type_e6f93835_c125_4710_9017_4a4090a5b403_Class50 ( obj_076406b7_0aa5_4a46_b599_5343a0b9c8de o )  )  ( type_e6f93835_c125_4710_9017_4a4090a5b403_Class45 ( obj_076406b7_0aa5_4a46_b599_5343a0b9c8de o )  ) ) ( type_e6f93835_c125_4710_9017_4a4090a5b403_Class12 ( obj_076406b7_0aa5_4a46_b599_5343a0b9c8de o )  ) ) ( type_e6f93835_c125_4710_9017_4a4090a5b403_Class55 ( obj_076406b7_0aa5_4a46_b599_5343a0b9c8de o )  ) ) ( type_e6f93835_c125_4710_9017_4a4090a5b403_Class33 ( obj_076406b7_0aa5_4a46_b599_5343a0b9c8de o )  ) ) ( type_e6f93835_c125_4710_9017_4a4090a5b403_Class22 ( obj_076406b7_0aa5_4a46_b599_5343a0b9c8de o )  ) ) ( type_e6f93835_c125_4710_9017_4a4090a5b403_Class29 ( obj_076406b7_0aa5_4a46_b599_5343a0b9c8de o )  ) ) ( type_e6f93835_c125_4710_9017_4a4090a5b403_Class39 ( obj_076406b7_0aa5_4a46_b599_5343a0b9c8de o )  ) ) ( type_e6f93835_c125_4710_9017_4a4090a5b403_Class41 ( obj_076406b7_0aa5_4a46_b599_5343a0b9c8de o )  ) )):named c46))
(assert (! (exists ((o Int)) (and (and (and (and (and (and ( type_e6f93835_c125_4710_9017_4a4090a5b403_Class51 ( obj_076406b7_0aa5_4a46_b599_5343a0b9c8de o )  )  ( type_e6f93835_c125_4710_9017_4a4090a5b403_Class45 ( obj_076406b7_0aa5_4a46_b599_5343a0b9c8de o )  ) ) ( type_e6f93835_c125_4710_9017_4a4090a5b403_Class12 ( obj_076406b7_0aa5_4a46_b599_5343a0b9c8de o )  ) ) ( type_e6f93835_c125_4710_9017_4a4090a5b403_Class33 ( obj_076406b7_0aa5_4a46_b599_5343a0b9c8de o )  ) ) ( type_e6f93835_c125_4710_9017_4a4090a5b403_Class22 ( obj_076406b7_0aa5_4a46_b599_5343a0b9c8de o )  ) ) ( type_e6f93835_c125_4710_9017_4a4090a5b403_Class16 ( obj_076406b7_0aa5_4a46_b599_5343a0b9c8de o )  ) ) ( type_e6f93835_c125_4710_9017_4a4090a5b403_Class39 ( obj_076406b7_0aa5_4a46_b599_5343a0b9c8de o )  ) )):named c47))
(assert (! (exists ((o Int)) (and (and (and (and (and ( type_e6f93835_c125_4710_9017_4a4090a5b403_Class52 ( obj_076406b7_0aa5_4a46_b599_5343a0b9c8de o )  )  ( type_e6f93835_c125_4710_9017_4a4090a5b403_Class45 ( obj_076406b7_0aa5_4a46_b599_5343a0b9c8de o )  ) ) ( type_e6f93835_c125_4710_9017_4a4090a5b403_Class12 ( obj_076406b7_0aa5_4a46_b599_5343a0b9c8de o )  ) ) ( type_e6f93835_c125_4710_9017_4a4090a5b403_Class33 ( obj_076406b7_0aa5_4a46_b599_5343a0b9c8de o )  ) ) ( type_e6f93835_c125_4710_9017_4a4090a5b403_Class22 ( obj_076406b7_0aa5_4a46_b599_5343a0b9c8de o )  ) ) ( type_e6f93835_c125_4710_9017_4a4090a5b403_Class39 ( obj_076406b7_0aa5_4a46_b599_5343a0b9c8de o )  ) )):named c48))
(assert (! (exists ((o Int)) ( type_e6f93835_c125_4710_9017_4a4090a5b403_Class53 ( obj_076406b7_0aa5_4a46_b599_5343a0b9c8de o )  ) ):named c49))
(assert (! (exists ((o Int)) ( type_e6f93835_c125_4710_9017_4a4090a5b403_Class54 ( obj_076406b7_0aa5_4a46_b599_5343a0b9c8de o )  ) ):named c50))
(assert (! (exists ((o Int)) (and (and (and (and (and (and (and ( type_e6f93835_c125_4710_9017_4a4090a5b403_Class55 ( obj_076406b7_0aa5_4a46_b599_5343a0b9c8de o )  )  ( type_e6f93835_c125_4710_9017_4a4090a5b403_Class45 ( obj_076406b7_0aa5_4a46_b599_5343a0b9c8de o )  ) ) ( type_e6f93835_c125_4710_9017_4a4090a5b403_Class12 ( obj_076406b7_0aa5_4a46_b599_5343a0b9c8de o )  ) ) ( type_e6f93835_c125_4710_9017_4a4090a5b403_Class33 ( obj_076406b7_0aa5_4a46_b599_5343a0b9c8de o )  ) ) ( type_e6f93835_c125_4710_9017_4a4090a5b403_Class22 ( obj_076406b7_0aa5_4a46_b599_5343a0b9c8de o )  ) ) ( type_e6f93835_c125_4710_9017_4a4090a5b403_Class29 ( obj_076406b7_0aa5_4a46_b599_5343a0b9c8de o )  ) ) ( type_e6f93835_c125_4710_9017_4a4090a5b403_Class39 ( obj_076406b7_0aa5_4a46_b599_5343a0b9c8de o )  ) ) ( type_e6f93835_c125_4710_9017_4a4090a5b403_Class41 ( obj_076406b7_0aa5_4a46_b599_5343a0b9c8de o )  ) )):named c51))
(assert (! (exists ((o Int)) ( type_e6f93835_c125_4710_9017_4a4090a5b403_Class6 ( obj_076406b7_0aa5_4a46_b599_5343a0b9c8de o )  ) ):named c52))
(assert (! (exists ((o Int)) (and (and (and (and (and (and (and (and (and ( type_e6f93835_c125_4710_9017_4a4090a5b403_Class7 ( obj_076406b7_0aa5_4a46_b599_5343a0b9c8de o )  )  ( type_e6f93835_c125_4710_9017_4a4090a5b403_Class45 ( obj_076406b7_0aa5_4a46_b599_5343a0b9c8de o )  ) ) ( type_e6f93835_c125_4710_9017_4a4090a5b403_Class12 ( obj_076406b7_0aa5_4a46_b599_5343a0b9c8de o )  ) ) ( type_e6f93835_c125_4710_9017_4a4090a5b403_Class55 ( obj_076406b7_0aa5_4a46_b599_5343a0b9c8de o )  ) ) ( type_e6f93835_c125_4710_9017_4a4090a5b403_Class33 ( obj_076406b7_0aa5_4a46_b599_5343a0b9c8de o )  ) ) ( type_e6f93835_c125_4710_9017_4a4090a5b403_Class22 ( obj_076406b7_0aa5_4a46_b599_5343a0b9c8de o )  ) ) ( type_e6f93835_c125_4710_9017_4a4090a5b403_Class29 ( obj_076406b7_0aa5_4a46_b599_5343a0b9c8de o )  ) ) ( type_e6f93835_c125_4710_9017_4a4090a5b403_Class39 ( obj_076406b7_0aa5_4a46_b599_5343a0b9c8de o )  ) ) ( type_e6f93835_c125_4710_9017_4a4090a5b403_Class50 ( obj_076406b7_0aa5_4a46_b599_5343a0b9c8de o )  ) ) ( type_e6f93835_c125_4710_9017_4a4090a5b403_Class41 ( obj_076406b7_0aa5_4a46_b599_5343a0b9c8de o )  ) )):named c53))
(assert (! (exists ((o Int)) (and ( type_e6f93835_c125_4710_9017_4a4090a5b403_Class8 ( obj_076406b7_0aa5_4a46_b599_5343a0b9c8de o )  )  ( type_e6f93835_c125_4710_9017_4a4090a5b403_Class39 ( obj_076406b7_0aa5_4a46_b599_5343a0b9c8de o )  ) )):named c54))
(assert (! (exists ((o Int)) ( type_e6f93835_c125_4710_9017_4a4090a5b403_Class9 ( obj_076406b7_0aa5_4a46_b599_5343a0b9c8de o )  ) ):named c55))

 ;end of formula 